language ESSENCE' 1.0

letting length be 5
letting boxed_mesh_avoidance_ExplicitR16_ExplicitBounded_Length be [3; int(1)]
letting boxed_mesh_avoidance_ExplicitR16_ExplicitBounded_Values be [[1, 3, 2; int(1..3)]; int(1)]
$ Visualisation for boxed_mesh_avoidance_ExplicitR16_ExplicitBounded_Values
$ 1 3 2

letting fin1 be 1
letting fin2 be 3
letting fin3 be 1
letting fin4 be 3
